N = 11;
H = 5;
T = 2;

avail = array3d(1..N, 1..H, 1..T, [1, 3, 1, 3, 3, 10, 6, 0, 1, 5, 2, 1, 10, 9, 6, 8, 9, 5, 5, 4, 4, 6, 9, 6, 5, 3, 3, 2, 8, 8, 4, 10, 2, 4, 9, 8, 8, 3, 3, 7, 0, 8, 6, 3, 1, 7, 5, 10, 1, 2, 3, 7, 2, 3, 3, 2, 3, 7, 5, 9, 8, 3, 10, 8, 5, 1, 3, 10, 1, 2, 2, 8, 9, 3, 1, 4, 6, 0, 7, 0, 7, 2, 6, 2, 0, 10, 6, 0, 9, 6, 3, 4, 6, 10, 3, 2, 3, 4, 9, 7, 2, 2, 9, 10, 10, 1, 6, 4, 9, 10]);

r = array2d(1..H, 1..T, [4, 2, 4, 5, 1, 3, 2, 5, 1, 1]);
